problems/csplib-prob056/sonet-models/noch/O2/lingeling/model_8_1-s3ring07-solution000001.solution
language Essence 1.3

letting network be mset({}, {}, {1, 3, 7, 10}, {2, 3, 9, 13}, {2, 4, 5, 8}, {2, 7, 9, 11, 12}, {3, 6, 8, 10, 11})
$ Here is a simple "visualisation" for the value above.
$ 
$ 
$  1  3  7 10
$  2  3  9 13
$  2  4  5  8
$  2  7  9 11 12
$  3  6  8 10 11

